% File represents an instance of a Composite Structure problem to be solved by a CP framework
% Created on 2025-03-25 14:06:10.922
T = 36;
n = 9;
m = 12;
edges = [(2, 1),
(5, 4),
(7, 8),
(2, 3),
(6, 5),
(9, 8),
(1, 4),
(7, 4),
(2, 5),
(5, 8),
(6, 3),
(6, 9)];
counts = [|12, 10, 2, 2,
|12, 10, 8, 6,
|12, 10, 8, 4,
|8, 8, 2, 2,
|10, 10, 4, 4,
|12, 10, 10, 4,
|8, 12, 2, 2,
|8, 10, 2, 2,
|12, 10, 2, 2|];
